(set-logic HORN)
(declare-datatypes ((Bool_0 0)) (((false_0 ) (true_0 ))))
(declare-datatypes ((Nat_0 0)) (((zero_0 ) (succ_0 (p_0 Nat_0)))))
(declare-fun lt_0 (Bool_0 Nat_0 Nat_0) Bool)
(assert (forall ((x_2 Bool_0) (n_0 Nat_0) (z_0 Nat_0))
	(=> (lt_0 x_2 n_0 z_0) (lt_0 x_2 (succ_0 n_0) (succ_0 z_0)))))
(assert (forall ((z_0 Nat_0))
	(lt_0 true_0 zero_0 (succ_0 z_0))))
(assert (forall ((x_0 Nat_0))
	(lt_0 false_0 x_0 zero_0)))
(assert (forall ((x_1 Nat_0))
	(=> (lt_0 true_0 x_1 x_1) false)))
(check-sat)
(get-model)
